W=8;
H=4;

MAX_TIME=18;
MAX_TRACKS=11;
SEMAPHORE_SUPPLY=1;

TARGET=(3,8);

TRAINS=[(2,1,RIGHT),(3,1,RIGHT)];
DECOYS=[];

INIT_POS=[
(2,1,STRAIGHT_RL),
(2,3,STRAIGHT_RL),
(3,1,STRAIGHT_RL),
(3,4,DSWITCH_L_R_D),
(3,5,STRAIGHT_RL),
(3,7,STRAIGHT_RL),
(3,8,STRAIGHT_RL),
];
TUNNEL_PAIRS=[];

GATES=[
(3,7,1,false),
];
ACTIVATIONS=[
(2,3,2),
(3,5,1),
];

DSWITCHES=[
(3,4,2),
];
STATIONS=[];
